p tw 67 71
1 2
2 13
3 4
4 5
5 6
6 7
7 8
8 9
8 11
9 10
10 42
11 12
12 14
13 24
14 15
15 16
16 17
16 26
17 18
18 19
19 20
20 21
21 22
22 23
22 26
23 25
24 35
25 42
26 27
27 28
28 29
29 30
30 31
30 34
31 32
32 33
33 34
34 36
35 46
36 37
37 38
38 39
39 40
40 41
41 42
41 3
42 43
43 44
44 45
45 47
46 57
47 48
48 49
49 50
50 51
51 52
52 53
53 54
54 55
55 56
56 58
57 65
58 59
59 60
60 61
61 62
62 63
63 64
65 66
66 67
67 3
